\ This file has been generated by DOcplex
\ ENCODING=ISO-8859-1
\Problem name: MultiDimensionalKnapsack

Minimize
 obj: - 1397547324 x_0 - 950332957 x_1 - 1118037700 x_2 - 1229838870 x_3
      - 838524517 x_4 - 671554295 x_5 - 3076424662 x_6 - 896624135 x_7
      - 10635952940 x_8 - 112535560 x_9 - 337606380 x_10 - 562676370 x_11
      - 2967542150 x_12 - 5042122020 x_13 - 844012700 x_14 - 281337468 x_15
      - 281337265 x_16 - 562674150 x_17 - 844009675 x_18 - 5120324580 x_19
      - 1350414991 x_20 - 844008540 x_21 - 844008275 x_22 - 281336025 x_23
      - 562671590 x_24 - 844007150 x_25 - 562670340 x_26 - 562670245 x_27
      - 562670020 x_28 - 55901610 capacity_0@int_slack@0
      - 111803220 capacity_0@int_slack@1 - 223606440 capacity_0@int_slack@2
      - 447212880 capacity_0@int_slack@3 - 894425760 capacity_0@int_slack@4
      - 1788851520 capacity_0@int_slack@5 - 3577703040 capacity_0@int_slack@6
      - 1453441860 capacity_0@int_slack@7 - 56266980 capacity_1@int_slack@0
      - 112533960 capacity_1@int_slack@1 - 225067920 capacity_1@int_slack@2
      - 450135840 capacity_1@int_slack@3 - 900271680 capacity_1@int_slack@4
      - 1800543360 capacity_1@int_slack@5 - 3601086720 capacity_1@int_slack@6
      - 1519208460 capacity_1@int_slack@7 + [ 228356250 x_0^2
      + 310564500 x_0*x_1 + 365370000 x_0*x_2 + 401907000 x_0*x_3
      + 274027500 x_0*x_4 + 182685000 x_0*x_5 + 913425000 x_0*x_6
      + 182685000 x_0*x_7 + 2740275000 x_0*x_8 + 730740000 x_0*x_12
      + 1096110000 x_0*x_13 + 18268500 x_0*capacity_0@int_slack@0
      + 36537000 x_0*capacity_0@int_slack@1
      + 73074000 x_0*capacity_0@int_slack@2
      + 146148000 x_0*capacity_0@int_slack@3
      + 292296000 x_0*capacity_0@int_slack@4
      + 584592000 x_0*capacity_0@int_slack@5
      + 1169184000 x_0*capacity_0@int_slack@6
      + 474981000 x_0*capacity_0@int_slack@7 + 105591930 x_1^2
      + 248451600 x_1*x_2 + 273296760 x_1*x_3 + 186338700 x_1*x_4
      + 124225800 x_1*x_5 + 621129000 x_1*x_6 + 124225800 x_1*x_7
      + 1863387000 x_1*x_8 + 496903200 x_1*x_12 + 745354800 x_1*x_13
      + 12422580 x_1*capacity_0@int_slack@0
      + 24845160 x_1*capacity_0@int_slack@1
      + 49690320 x_1*capacity_0@int_slack@2
      + 99380640 x_1*capacity_0@int_slack@3
      + 198761280 x_1*capacity_0@int_slack@4
      + 397522560 x_1*capacity_0@int_slack@5
      + 795045120 x_1*capacity_0@int_slack@6
      + 322987080 x_1*capacity_0@int_slack@7 + 146148000 x_2^2
      + 321525600 x_2*x_3 + 219222000 x_2*x_4 + 146148000 x_2*x_5
      + 730740000 x_2*x_6 + 146148000 x_2*x_7 + 2192220000 x_2*x_8
      + 584592000 x_2*x_12 + 876888000 x_2*x_13
      + 14614800 x_2*capacity_0@int_slack@0
      + 29229600 x_2*capacity_0@int_slack@1
      + 58459200 x_2*capacity_0@int_slack@2
      + 116918400 x_2*capacity_0@int_slack@3
      + 233836800 x_2*capacity_0@int_slack@4
      + 467673600 x_2*capacity_0@int_slack@5
      + 935347200 x_2*capacity_0@int_slack@6
      + 379984800 x_2*capacity_0@int_slack@7 + 176839080 x_3^2
      + 241144200 x_3*x_4 + 160762800 x_3*x_5 + 803814000 x_3*x_6
      + 160762800 x_3*x_7 + 2411442000 x_3*x_8 + 643051200 x_3*x_12
      + 964576800 x_3*x_13 + 16076280 x_3*capacity_0@int_slack@0
      + 32152560 x_3*capacity_0@int_slack@1
      + 64305120 x_3*capacity_0@int_slack@2
      + 128610240 x_3*capacity_0@int_slack@3
      + 257220480 x_3*capacity_0@int_slack@4
      + 514440960 x_3*capacity_0@int_slack@5
      + 1028881920 x_3*capacity_0@int_slack@6
      + 417983280 x_3*capacity_0@int_slack@7 + 82208250 x_4^2
      + 109611000 x_4*x_5 + 548055000 x_4*x_6 + 109611000 x_4*x_7
      + 1644165000 x_4*x_8 + 438444000 x_4*x_12 + 657666000 x_4*x_13
      + 10961100 x_4*capacity_0@int_slack@0
      + 21922200 x_4*capacity_0@int_slack@1
      + 43844400 x_4*capacity_0@int_slack@2
      + 87688800 x_4*capacity_0@int_slack@3
      + 175377600 x_4*capacity_0@int_slack@4
      + 350755200 x_4*capacity_0@int_slack@5
      + 701510400 x_4*capacity_0@int_slack@6
      + 284988600 x_4*capacity_0@int_slack@7 + 37998480 x_5^2
      + 372677400 x_5*x_6 + 81842880 x_5*x_7 + 1154569200 x_5*x_8
      + 2922960 x_5*x_9 + 8768880 x_5*x_10 + 14614800 x_5*x_11
      + 311295240 x_5*x_12 + 482288400 x_5*x_13 + 21922200 x_5*x_14
      + 7307400 x_5*x_15 + 7307400 x_5*x_16 + 14614800 x_5*x_17
      + 21922200 x_5*x_18 + 132994680 x_5*x_19 + 35075520 x_5*x_20
      + 21922200 x_5*x_21 + 21922200 x_5*x_22 + 7307400 x_5*x_23
      + 14614800 x_5*x_24 + 21922200 x_5*x_25 + 14614800 x_5*x_26
      + 14614800 x_5*x_27 + 14614800 x_5*x_28
      + 7307400 x_5*capacity_0@int_slack@0 + 14614800 x_5*capacity_0@int_slack@1
      + 29229600 x_5*capacity_0@int_slack@2
      + 58459200 x_5*capacity_0@int_slack@3
      + 116918400 x_5*capacity_0@int_slack@4
      + 233836800 x_5*capacity_0@int_slack@5
      + 467673600 x_5*capacity_0@int_slack@6
      + 189992400 x_5*capacity_0@int_slack@7
      + 1461480 x_5*capacity_1@int_slack@0 + 2922960 x_5*capacity_1@int_slack@1
      + 5845920 x_5*capacity_1@int_slack@2 + 11691840 x_5*capacity_1@int_slack@3
      + 23383680 x_5*capacity_1@int_slack@4
      + 46767360 x_5*capacity_1@int_slack@5
      + 93534720 x_5*capacity_1@int_slack@6
      + 39459960 x_5*capacity_1@int_slack@7 + 922559250 x_6^2
      + 387292200 x_6*x_7 + 5626698000 x_6*x_8 + 7307400 x_6*x_9
      + 21922200 x_6*x_10 + 36537000 x_6*x_11 + 1508978100 x_6*x_12
      + 2301831000 x_6*x_13 + 54805500 x_6*x_14 + 18268500 x_6*x_15
      + 18268500 x_6*x_16 + 36537000 x_6*x_17 + 54805500 x_6*x_18
      + 332486700 x_6*x_19 + 87688800 x_6*x_20 + 54805500 x_6*x_21
      + 54805500 x_6*x_22 + 18268500 x_6*x_23 + 36537000 x_6*x_24
      + 54805500 x_6*x_25 + 36537000 x_6*x_26 + 36537000 x_6*x_27
      + 36537000 x_6*x_28 + 36537000 x_6*capacity_0@int_slack@0
      + 73074000 x_6*capacity_0@int_slack@1
      + 146148000 x_6*capacity_0@int_slack@2
      + 292296000 x_6*capacity_0@int_slack@3
      + 584592000 x_6*capacity_0@int_slack@4
      + 1169184000 x_6*capacity_0@int_slack@5
      + 2338368000 x_6*capacity_0@int_slack@6
      + 949962000 x_6*capacity_0@int_slack@7
      + 3653700 x_6*capacity_1@int_slack@0 + 7307400 x_6*capacity_1@int_slack@1
      + 14614800 x_6*capacity_1@int_slack@2
      + 29229600 x_6*capacity_1@int_slack@3
      + 58459200 x_6*capacity_1@int_slack@4
      + 116918400 x_6*capacity_1@int_slack@5
      + 233836800 x_6*capacity_1@int_slack@6
      + 98649900 x_6*capacity_1@int_slack@7 + 49690320 x_7^2
      + 1271487600 x_7*x_8 + 8768880 x_7*x_9 + 26306640 x_7*x_10
      + 43844400 x_7*x_11 + 349293720 x_7*x_12 + 569977200 x_7*x_13
      + 65766600 x_7*x_14 + 21922200 x_7*x_15 + 21922200 x_7*x_16
      + 43844400 x_7*x_17 + 65766600 x_7*x_18 + 398984040 x_7*x_19
      + 105226560 x_7*x_20 + 65766600 x_7*x_21 + 65766600 x_7*x_22
      + 21922200 x_7*x_23 + 43844400 x_7*x_24 + 65766600 x_7*x_25
      + 43844400 x_7*x_26 + 43844400 x_7*x_27 + 43844400 x_7*x_28
      + 7307400 x_7*capacity_0@int_slack@0 + 14614800 x_7*capacity_0@int_slack@1
      + 29229600 x_7*capacity_0@int_slack@2
      + 58459200 x_7*capacity_0@int_slack@3
      + 116918400 x_7*capacity_0@int_slack@4
      + 233836800 x_7*capacity_0@int_slack@5
      + 467673600 x_7*capacity_0@int_slack@6
      + 189992400 x_7*capacity_0@int_slack@7
      + 4384440 x_7*capacity_1@int_slack@0 + 8768880 x_7*capacity_1@int_slack@1
      + 17537760 x_7*capacity_1@int_slack@2
      + 35075520 x_7*capacity_1@int_slack@3
      + 70151040 x_7*capacity_1@int_slack@4
      + 140302080 x_7*capacity_1@int_slack@5
      + 280604160 x_7*capacity_1@int_slack@6
      + 118379880 x_7*capacity_1@int_slack@7 + 8805417000 x_8^2
      + 58459200 x_8*x_9 + 175377600 x_8*x_10 + 292296000 x_8*x_11
      + 4764424800 x_8*x_12 + 7453548000 x_8*x_13 + 438444000 x_8*x_14
      + 146148000 x_8*x_15 + 146148000 x_8*x_16 + 292296000 x_8*x_17
      + 438444000 x_8*x_18 + 2659893600 x_8*x_19 + 701510400 x_8*x_20
      + 438444000 x_8*x_21 + 438444000 x_8*x_22 + 146148000 x_8*x_23
      + 292296000 x_8*x_24 + 438444000 x_8*x_25 + 292296000 x_8*x_26
      + 292296000 x_8*x_27 + 292296000 x_8*x_28
      + 109611000 x_8*capacity_0@int_slack@0
      + 219222000 x_8*capacity_0@int_slack@1
      + 438444000 x_8*capacity_0@int_slack@2
      + 876888000 x_8*capacity_0@int_slack@3
      + 1753776000 x_8*capacity_0@int_slack@4
      + 3507552000 x_8*capacity_0@int_slack@5
      + 7015104000 x_8*capacity_0@int_slack@6
      + 2849886000 x_8*capacity_0@int_slack@7
      + 29229600 x_8*capacity_1@int_slack@0
      + 58459200 x_8*capacity_1@int_slack@1
      + 116918400 x_8*capacity_1@int_slack@2
      + 233836800 x_8*capacity_1@int_slack@3
      + 467673600 x_8*capacity_1@int_slack@4
      + 935347200 x_8*capacity_1@int_slack@5
      + 1870694400 x_8*capacity_1@int_slack@6
      + 789199200 x_8*capacity_1@int_slack@7 + 1461480 x_9^2 + 8768880 x_9*x_10
      + 14614800 x_9*x_11 + 18999240 x_9*x_12 + 43844400 x_9*x_13
      + 21922200 x_9*x_14 + 7307400 x_9*x_15 + 7307400 x_9*x_16
      + 14614800 x_9*x_17 + 21922200 x_9*x_18 + 132994680 x_9*x_19
      + 35075520 x_9*x_20 + 21922200 x_9*x_21 + 21922200 x_9*x_22
      + 7307400 x_9*x_23 + 14614800 x_9*x_24 + 21922200 x_9*x_25
      + 14614800 x_9*x_26 + 14614800 x_9*x_27 + 14614800 x_9*x_28
      + 1461480 x_9*capacity_1@int_slack@0 + 2922960 x_9*capacity_1@int_slack@1
      + 5845920 x_9*capacity_1@int_slack@2 + 11691840 x_9*capacity_1@int_slack@3
      + 23383680 x_9*capacity_1@int_slack@4
      + 46767360 x_9*capacity_1@int_slack@5
      + 93534720 x_9*capacity_1@int_slack@6
      + 39459960 x_9*capacity_1@int_slack@7 + 13153320 x_10^2
      + 43844400 x_10*x_11 + 56997720 x_10*x_12 + 131533200 x_10*x_13
      + 65766600 x_10*x_14 + 21922200 x_10*x_15 + 21922200 x_10*x_16
      + 43844400 x_10*x_17 + 65766600 x_10*x_18 + 398984040 x_10*x_19
      + 105226560 x_10*x_20 + 65766600 x_10*x_21 + 65766600 x_10*x_22
      + 21922200 x_10*x_23 + 43844400 x_10*x_24 + 65766600 x_10*x_25
      + 43844400 x_10*x_26 + 43844400 x_10*x_27 + 43844400 x_10*x_28
      + 4384440 x_10*capacity_1@int_slack@0
      + 8768880 x_10*capacity_1@int_slack@1
      + 17537760 x_10*capacity_1@int_slack@2
      + 35075520 x_10*capacity_1@int_slack@3
      + 70151040 x_10*capacity_1@int_slack@4
      + 140302080 x_10*capacity_1@int_slack@5
      + 280604160 x_10*capacity_1@int_slack@6
      + 118379880 x_10*capacity_1@int_slack@7 + 36537000 x_11^2
      + 94996200 x_11*x_12 + 219222000 x_11*x_13 + 109611000 x_11*x_14
      + 36537000 x_11*x_15 + 36537000 x_11*x_16 + 73074000 x_11*x_17
      + 109611000 x_11*x_18 + 664973400 x_11*x_19 + 175377600 x_11*x_20
      + 109611000 x_11*x_21 + 109611000 x_11*x_22 + 36537000 x_11*x_23
      + 73074000 x_11*x_24 + 109611000 x_11*x_25 + 73074000 x_11*x_26
      + 73074000 x_11*x_27 + 73074000 x_11*x_28
      + 7307400 x_11*capacity_1@int_slack@0
      + 14614800 x_11*capacity_1@int_slack@1
      + 29229600 x_11*capacity_1@int_slack@2
      + 58459200 x_11*capacity_1@int_slack@3
      + 116918400 x_11*capacity_1@int_slack@4
      + 233836800 x_11*capacity_1@int_slack@5
      + 467673600 x_11*capacity_1@int_slack@6
      + 197299800 x_11*capacity_1@int_slack@7 + 646339530 x_12^2
      + 2038764600 x_12*x_13 + 142494300 x_12*x_14 + 47498100 x_12*x_15
      + 47498100 x_12*x_16 + 94996200 x_12*x_17 + 142494300 x_12*x_18
      + 864465420 x_12*x_19 + 227990880 x_12*x_20 + 142494300 x_12*x_21
      + 142494300 x_12*x_22 + 47498100 x_12*x_23 + 94996200 x_12*x_24
      + 142494300 x_12*x_25 + 94996200 x_12*x_26 + 94996200 x_12*x_27
      + 94996200 x_12*x_28 + 29229600 x_12*capacity_0@int_slack@0
      + 58459200 x_12*capacity_0@int_slack@1
      + 116918400 x_12*capacity_0@int_slack@2
      + 233836800 x_12*capacity_0@int_slack@3
      + 467673600 x_12*capacity_0@int_slack@4
      + 935347200 x_12*capacity_0@int_slack@5
      + 1870694400 x_12*capacity_0@int_slack@6
      + 759969600 x_12*capacity_0@int_slack@7
      + 9499620 x_12*capacity_1@int_slack@0
      + 18999240 x_12*capacity_1@int_slack@1
      + 37998480 x_12*capacity_1@int_slack@2
      + 75996960 x_12*capacity_1@int_slack@3
      + 151993920 x_12*capacity_1@int_slack@4
      + 303987840 x_12*capacity_1@int_slack@5
      + 607975680 x_12*capacity_1@int_slack@6
      + 256489740 x_12*capacity_1@int_slack@7 + 1644165000 x_13^2
      + 328833000 x_13*x_14 + 109611000 x_13*x_15 + 109611000 x_13*x_16
      + 219222000 x_13*x_17 + 328833000 x_13*x_18 + 1994920200 x_13*x_19
      + 526132800 x_13*x_20 + 328833000 x_13*x_21 + 328833000 x_13*x_22
      + 109611000 x_13*x_23 + 219222000 x_13*x_24 + 328833000 x_13*x_25
      + 219222000 x_13*x_26 + 219222000 x_13*x_27 + 219222000 x_13*x_28
      + 43844400 x_13*capacity_0@int_slack@0
      + 87688800 x_13*capacity_0@int_slack@1
      + 175377600 x_13*capacity_0@int_slack@2
      + 350755200 x_13*capacity_0@int_slack@3
      + 701510400 x_13*capacity_0@int_slack@4
      + 1403020800 x_13*capacity_0@int_slack@5
      + 2806041600 x_13*capacity_0@int_slack@6
      + 1139954400 x_13*capacity_0@int_slack@7
      + 21922200 x_13*capacity_1@int_slack@0
      + 43844400 x_13*capacity_1@int_slack@1
      + 87688800 x_13*capacity_1@int_slack@2
      + 175377600 x_13*capacity_1@int_slack@3
      + 350755200 x_13*capacity_1@int_slack@4
      + 701510400 x_13*capacity_1@int_slack@5
      + 1403020800 x_13*capacity_1@int_slack@6
      + 591899400 x_13*capacity_1@int_slack@7 + 82208250 x_14^2
      + 54805500 x_14*x_15 + 54805500 x_14*x_16 + 109611000 x_14*x_17
      + 164416500 x_14*x_18 + 997460100 x_14*x_19 + 263066400 x_14*x_20
      + 164416500 x_14*x_21 + 164416500 x_14*x_22 + 54805500 x_14*x_23
      + 109611000 x_14*x_24 + 164416500 x_14*x_25 + 109611000 x_14*x_26
      + 109611000 x_14*x_27 + 109611000 x_14*x_28
      + 10961100 x_14*capacity_1@int_slack@0
      + 21922200 x_14*capacity_1@int_slack@1
      + 43844400 x_14*capacity_1@int_slack@2
      + 87688800 x_14*capacity_1@int_slack@3
      + 175377600 x_14*capacity_1@int_slack@4
      + 350755200 x_14*capacity_1@int_slack@5
      + 701510400 x_14*capacity_1@int_slack@6
      + 295949700 x_14*capacity_1@int_slack@7 + 9134250 x_15^2
      + 18268500 x_15*x_16 + 36537000 x_15*x_17 + 54805500 x_15*x_18
      + 332486700 x_15*x_19 + 87688800 x_15*x_20 + 54805500 x_15*x_21
      + 54805500 x_15*x_22 + 18268500 x_15*x_23 + 36537000 x_15*x_24
      + 54805500 x_15*x_25 + 36537000 x_15*x_26 + 36537000 x_15*x_27
      + 36537000 x_15*x_28 + 3653700 x_15*capacity_1@int_slack@0
      + 7307400 x_15*capacity_1@int_slack@1
      + 14614800 x_15*capacity_1@int_slack@2
      + 29229600 x_15*capacity_1@int_slack@3
      + 58459200 x_15*capacity_1@int_slack@4
      + 116918400 x_15*capacity_1@int_slack@5
      + 233836800 x_15*capacity_1@int_slack@6
      + 98649900 x_15*capacity_1@int_slack@7 + 9134250 x_16^2
      + 36537000 x_16*x_17 + 54805500 x_16*x_18 + 332486700 x_16*x_19
      + 87688800 x_16*x_20 + 54805500 x_16*x_21 + 54805500 x_16*x_22
      + 18268500 x_16*x_23 + 36537000 x_16*x_24 + 54805500 x_16*x_25
      + 36537000 x_16*x_26 + 36537000 x_16*x_27 + 36537000 x_16*x_28
      + 3653700 x_16*capacity_1@int_slack@0
      + 7307400 x_16*capacity_1@int_slack@1
      + 14614800 x_16*capacity_1@int_slack@2
      + 29229600 x_16*capacity_1@int_slack@3
      + 58459200 x_16*capacity_1@int_slack@4
      + 116918400 x_16*capacity_1@int_slack@5
      + 233836800 x_16*capacity_1@int_slack@6
      + 98649900 x_16*capacity_1@int_slack@7 + 36537000 x_17^2
      + 109611000 x_17*x_18 + 664973400 x_17*x_19 + 175377600 x_17*x_20
      + 109611000 x_17*x_21 + 109611000 x_17*x_22 + 36537000 x_17*x_23
      + 73074000 x_17*x_24 + 109611000 x_17*x_25 + 73074000 x_17*x_26
      + 73074000 x_17*x_27 + 73074000 x_17*x_28
      + 7307400 x_17*capacity_1@int_slack@0
      + 14614800 x_17*capacity_1@int_slack@1
      + 29229600 x_17*capacity_1@int_slack@2
      + 58459200 x_17*capacity_1@int_slack@3
      + 116918400 x_17*capacity_1@int_slack@4
      + 233836800 x_17*capacity_1@int_slack@5
      + 467673600 x_17*capacity_1@int_slack@6
      + 197299800 x_17*capacity_1@int_slack@7 + 82208250 x_18^2
      + 997460100 x_18*x_19 + 263066400 x_18*x_20 + 164416500 x_18*x_21
      + 164416500 x_18*x_22 + 54805500 x_18*x_23 + 109611000 x_18*x_24
      + 164416500 x_18*x_25 + 109611000 x_18*x_26 + 109611000 x_18*x_27
      + 109611000 x_18*x_28 + 10961100 x_18*capacity_1@int_slack@0
      + 21922200 x_18*capacity_1@int_slack@1
      + 43844400 x_18*capacity_1@int_slack@2
      + 87688800 x_18*capacity_1@int_slack@3
      + 175377600 x_18*capacity_1@int_slack@4
      + 350755200 x_18*capacity_1@int_slack@5
      + 701510400 x_18*capacity_1@int_slack@6
      + 295949700 x_18*capacity_1@int_slack@7 + 3025628970 x_19^2
      + 1595936160 x_19*x_20 + 997460100 x_19*x_21 + 997460100 x_19*x_22
      + 332486700 x_19*x_23 + 664973400 x_19*x_24 + 997460100 x_19*x_25
      + 664973400 x_19*x_26 + 664973400 x_19*x_27 + 664973400 x_19*x_28
      + 66497340 x_19*capacity_1@int_slack@0
      + 132994680 x_19*capacity_1@int_slack@1
      + 265989360 x_19*capacity_1@int_slack@2
      + 531978720 x_19*capacity_1@int_slack@3
      + 1063957440 x_19*capacity_1@int_slack@4
      + 2127914880 x_19*capacity_1@int_slack@5
      + 4255829760 x_19*capacity_1@int_slack@6
      + 1795428180 x_19*capacity_1@int_slack@7 + 210453120 x_20^2
      + 263066400 x_20*x_21 + 263066400 x_20*x_22 + 87688800 x_20*x_23
      + 175377600 x_20*x_24 + 263066400 x_20*x_25 + 175377600 x_20*x_26
      + 175377600 x_20*x_27 + 175377600 x_20*x_28
      + 17537760 x_20*capacity_1@int_slack@0
      + 35075520 x_20*capacity_1@int_slack@1
      + 70151040 x_20*capacity_1@int_slack@2
      + 140302080 x_20*capacity_1@int_slack@3
      + 280604160 x_20*capacity_1@int_slack@4
      + 561208320 x_20*capacity_1@int_slack@5
      + 1122416640 x_20*capacity_1@int_slack@6
      + 473519520 x_20*capacity_1@int_slack@7 + 82208250 x_21^2
      + 164416500 x_21*x_22 + 54805500 x_21*x_23 + 109611000 x_21*x_24
      + 164416500 x_21*x_25 + 109611000 x_21*x_26 + 109611000 x_21*x_27
      + 109611000 x_21*x_28 + 10961100 x_21*capacity_1@int_slack@0
      + 21922200 x_21*capacity_1@int_slack@1
      + 43844400 x_21*capacity_1@int_slack@2
      + 87688800 x_21*capacity_1@int_slack@3
      + 175377600 x_21*capacity_1@int_slack@4
      + 350755200 x_21*capacity_1@int_slack@5
      + 701510400 x_21*capacity_1@int_slack@6
      + 295949700 x_21*capacity_1@int_slack@7 + 82208250 x_22^2
      + 54805500 x_22*x_23 + 109611000 x_22*x_24 + 164416500 x_22*x_25
      + 109611000 x_22*x_26 + 109611000 x_22*x_27 + 109611000 x_22*x_28
      + 10961100 x_22*capacity_1@int_slack@0
      + 21922200 x_22*capacity_1@int_slack@1
      + 43844400 x_22*capacity_1@int_slack@2
      + 87688800 x_22*capacity_1@int_slack@3
      + 175377600 x_22*capacity_1@int_slack@4
      + 350755200 x_22*capacity_1@int_slack@5
      + 701510400 x_22*capacity_1@int_slack@6
      + 295949700 x_22*capacity_1@int_slack@7 + 9134250 x_23^2
      + 36537000 x_23*x_24 + 54805500 x_23*x_25 + 36537000 x_23*x_26
      + 36537000 x_23*x_27 + 36537000 x_23*x_28
      + 3653700 x_23*capacity_1@int_slack@0
      + 7307400 x_23*capacity_1@int_slack@1
      + 14614800 x_23*capacity_1@int_slack@2
      + 29229600 x_23*capacity_1@int_slack@3
      + 58459200 x_23*capacity_1@int_slack@4
      + 116918400 x_23*capacity_1@int_slack@5
      + 233836800 x_23*capacity_1@int_slack@6
      + 98649900 x_23*capacity_1@int_slack@7 + 36537000 x_24^2
      + 109611000 x_24*x_25 + 73074000 x_24*x_26 + 73074000 x_24*x_27
      + 73074000 x_24*x_28 + 7307400 x_24*capacity_1@int_slack@0
      + 14614800 x_24*capacity_1@int_slack@1
      + 29229600 x_24*capacity_1@int_slack@2
      + 58459200 x_24*capacity_1@int_slack@3
      + 116918400 x_24*capacity_1@int_slack@4
      + 233836800 x_24*capacity_1@int_slack@5
      + 467673600 x_24*capacity_1@int_slack@6
      + 197299800 x_24*capacity_1@int_slack@7 + 82208250 x_25^2
      + 109611000 x_25*x_26 + 109611000 x_25*x_27 + 109611000 x_25*x_28
      + 10961100 x_25*capacity_1@int_slack@0
      + 21922200 x_25*capacity_1@int_slack@1
      + 43844400 x_25*capacity_1@int_slack@2
      + 87688800 x_25*capacity_1@int_slack@3
      + 175377600 x_25*capacity_1@int_slack@4
      + 350755200 x_25*capacity_1@int_slack@5
      + 701510400 x_25*capacity_1@int_slack@6
      + 295949700 x_25*capacity_1@int_slack@7 + 36537000 x_26^2
      + 73074000 x_26*x_27 + 73074000 x_26*x_28
      + 7307400 x_26*capacity_1@int_slack@0
      + 14614800 x_26*capacity_1@int_slack@1
      + 29229600 x_26*capacity_1@int_slack@2
      + 58459200 x_26*capacity_1@int_slack@3
      + 116918400 x_26*capacity_1@int_slack@4
      + 233836800 x_26*capacity_1@int_slack@5
      + 467673600 x_26*capacity_1@int_slack@6
      + 197299800 x_26*capacity_1@int_slack@7 + 36537000 x_27^2
      + 73074000 x_27*x_28 + 7307400 x_27*capacity_1@int_slack@0
      + 14614800 x_27*capacity_1@int_slack@1
      + 29229600 x_27*capacity_1@int_slack@2
      + 58459200 x_27*capacity_1@int_slack@3
      + 116918400 x_27*capacity_1@int_slack@4
      + 233836800 x_27*capacity_1@int_slack@5
      + 467673600 x_27*capacity_1@int_slack@6
      + 197299800 x_27*capacity_1@int_slack@7 + 36537000 x_28^2
      + 7307400 x_28*capacity_1@int_slack@0
      + 14614800 x_28*capacity_1@int_slack@1
      + 29229600 x_28*capacity_1@int_slack@2
      + 58459200 x_28*capacity_1@int_slack@3
      + 116918400 x_28*capacity_1@int_slack@4
      + 233836800 x_28*capacity_1@int_slack@5
      + 467673600 x_28*capacity_1@int_slack@6
      + 197299800 x_28*capacity_1@int_slack@7 + 365370 capacity_0@int_slack@0^2
      + 1461480 capacity_0@int_slack@0*capacity_0@int_slack@1
      + 2922960 capacity_0@int_slack@0*capacity_0@int_slack@2
      + 5845920 capacity_0@int_slack@0*capacity_0@int_slack@3
      + 11691840 capacity_0@int_slack@0*capacity_0@int_slack@4
      + 23383680 capacity_0@int_slack@0*capacity_0@int_slack@5
      + 46767360 capacity_0@int_slack@0*capacity_0@int_slack@6
      + 18999240 capacity_0@int_slack@0*capacity_0@int_slack@7
      + 1461480 capacity_0@int_slack@1^2
      + 5845920 capacity_0@int_slack@1*capacity_0@int_slack@2
      + 11691840 capacity_0@int_slack@1*capacity_0@int_slack@3
      + 23383680 capacity_0@int_slack@1*capacity_0@int_slack@4
      + 46767360 capacity_0@int_slack@1*capacity_0@int_slack@5
      + 93534720 capacity_0@int_slack@1*capacity_0@int_slack@6
      + 37998480 capacity_0@int_slack@1*capacity_0@int_slack@7
      + 5845920 capacity_0@int_slack@2^2
      + 23383680 capacity_0@int_slack@2*capacity_0@int_slack@3
      + 46767360 capacity_0@int_slack@2*capacity_0@int_slack@4
      + 93534720 capacity_0@int_slack@2*capacity_0@int_slack@5
      + 187069440 capacity_0@int_slack@2*capacity_0@int_slack@6
      + 75996960 capacity_0@int_slack@2*capacity_0@int_slack@7
      + 23383680 capacity_0@int_slack@3^2
      + 93534720 capacity_0@int_slack@3*capacity_0@int_slack@4
      + 187069440 capacity_0@int_slack@3*capacity_0@int_slack@5
      + 374138880 capacity_0@int_slack@3*capacity_0@int_slack@6
      + 151993920 capacity_0@int_slack@3*capacity_0@int_slack@7
      + 93534720 capacity_0@int_slack@4^2
      + 374138880 capacity_0@int_slack@4*capacity_0@int_slack@5
      + 748277760 capacity_0@int_slack@4*capacity_0@int_slack@6
      + 303987840 capacity_0@int_slack@4*capacity_0@int_slack@7
      + 374138880 capacity_0@int_slack@5^2
      + 1496555520 capacity_0@int_slack@5*capacity_0@int_slack@6
      + 607975680 capacity_0@int_slack@5*capacity_0@int_slack@7
      + 1496555520 capacity_0@int_slack@6^2
      + 1215951360 capacity_0@int_slack@6*capacity_0@int_slack@7
      + 246990120 capacity_0@int_slack@7^2 + 365370 capacity_1@int_slack@0^2
      + 1461480 capacity_1@int_slack@0*capacity_1@int_slack@1
      + 2922960 capacity_1@int_slack@0*capacity_1@int_slack@2
      + 5845920 capacity_1@int_slack@0*capacity_1@int_slack@3
      + 11691840 capacity_1@int_slack@0*capacity_1@int_slack@4
      + 23383680 capacity_1@int_slack@0*capacity_1@int_slack@5
      + 46767360 capacity_1@int_slack@0*capacity_1@int_slack@6
      + 19729980 capacity_1@int_slack@0*capacity_1@int_slack@7
      + 1461480 capacity_1@int_slack@1^2
      + 5845920 capacity_1@int_slack@1*capacity_1@int_slack@2
      + 11691840 capacity_1@int_slack@1*capacity_1@int_slack@3
      + 23383680 capacity_1@int_slack@1*capacity_1@int_slack@4
      + 46767360 capacity_1@int_slack@1*capacity_1@int_slack@5
      + 93534720 capacity_1@int_slack@1*capacity_1@int_slack@6
      + 39459960 capacity_1@int_slack@1*capacity_1@int_slack@7
      + 5845920 capacity_1@int_slack@2^2
      + 23383680 capacity_1@int_slack@2*capacity_1@int_slack@3
      + 46767360 capacity_1@int_slack@2*capacity_1@int_slack@4
      + 93534720 capacity_1@int_slack@2*capacity_1@int_slack@5
      + 187069440 capacity_1@int_slack@2*capacity_1@int_slack@6
      + 78919920 capacity_1@int_slack@2*capacity_1@int_slack@7
      + 23383680 capacity_1@int_slack@3^2
      + 93534720 capacity_1@int_slack@3*capacity_1@int_slack@4
      + 187069440 capacity_1@int_slack@3*capacity_1@int_slack@5
      + 374138880 capacity_1@int_slack@3*capacity_1@int_slack@6
      + 157839840 capacity_1@int_slack@3*capacity_1@int_slack@7
      + 93534720 capacity_1@int_slack@4^2
      + 374138880 capacity_1@int_slack@4*capacity_1@int_slack@5
      + 748277760 capacity_1@int_slack@4*capacity_1@int_slack@6
      + 315679680 capacity_1@int_slack@4*capacity_1@int_slack@7
      + 374138880 capacity_1@int_slack@5^2
      + 1496555520 capacity_1@int_slack@5*capacity_1@int_slack@6
      + 631359360 capacity_1@int_slack@5*capacity_1@int_slack@7
      + 1496555520 capacity_1@int_slack@6^2
      + 1262718720 capacity_1@int_slack@6*capacity_1@int_slack@7
      + 266354730 capacity_1@int_slack@7^2 ]/2 + 8609030625
Subject To

Bounds
 0 <= x_0 <= 1
 0 <= x_1 <= 1
 0 <= x_2 <= 1
 0 <= x_3 <= 1
 0 <= x_4 <= 1
 0 <= x_5 <= 1
 0 <= x_6 <= 1
 0 <= x_7 <= 1
 0 <= x_8 <= 1
 0 <= x_9 <= 1
 0 <= x_10 <= 1
 0 <= x_11 <= 1
 0 <= x_12 <= 1
 0 <= x_13 <= 1
 0 <= x_14 <= 1
 0 <= x_15 <= 1
 0 <= x_16 <= 1
 0 <= x_17 <= 1
 0 <= x_18 <= 1
 0 <= x_19 <= 1
 0 <= x_20 <= 1
 0 <= x_21 <= 1
 0 <= x_22 <= 1
 0 <= x_23 <= 1
 0 <= x_24 <= 1
 0 <= x_25 <= 1
 0 <= x_26 <= 1
 0 <= x_27 <= 1
 0 <= x_28 <= 1
 0 <= capacity_0@int_slack@0 <= 1
 0 <= capacity_0@int_slack@1 <= 1
 0 <= capacity_0@int_slack@2 <= 1
 0 <= capacity_0@int_slack@3 <= 1
 0 <= capacity_0@int_slack@4 <= 1
 0 <= capacity_0@int_slack@5 <= 1
 0 <= capacity_0@int_slack@6 <= 1
 0 <= capacity_0@int_slack@7 <= 1
 0 <= capacity_1@int_slack@0 <= 1
 0 <= capacity_1@int_slack@1 <= 1
 0 <= capacity_1@int_slack@2 <= 1
 0 <= capacity_1@int_slack@3 <= 1
 0 <= capacity_1@int_slack@4 <= 1
 0 <= capacity_1@int_slack@5 <= 1
 0 <= capacity_1@int_slack@6 <= 1
 0 <= capacity_1@int_slack@7 <= 1

Binaries
 x_0 x_1 x_2 x_3 x_4 x_5 x_6 x_7 x_8 x_9 x_10 x_11 x_12 x_13 x_14 x_15 x_16 x_17
 x_18 x_19 x_20 x_21 x_22 x_23 x_24 x_25 x_26 x_27 x_28 capacity_0@int_slack@0
 capacity_0@int_slack@1 capacity_0@int_slack@2 capacity_0@int_slack@3
 capacity_0@int_slack@4 capacity_0@int_slack@5 capacity_0@int_slack@6
 capacity_0@int_slack@7 capacity_1@int_slack@0 capacity_1@int_slack@1
 capacity_1@int_slack@2 capacity_1@int_slack@3 capacity_1@int_slack@4
 capacity_1@int_slack@5 capacity_1@int_slack@6 capacity_1@int_slack@7
End
